Set parameter TSPort to value 51199
Set parameter TokenServer to value "open-license1.lanl.gov"
Set parameter TimeLimit to value 2048
Set parameter Threads to value 1
Gurobi Optimizer version 10.0.3 build v10.0.3rc0 (linux64)

CPU model: Intel(R) Xeon(R) CPU E5-2695 v4 @ 2.10GHz, instruction set [SSE2|AVX|AVX2]
Thread count: 36 physical cores, 72 logical processors, using up to 1 threads

Optimize a model with 0 rows, 1532 columns and 0 nonzeros
Model fingerprint: 0x0eac3bf4
Model has 6829 quadratic objective terms
Variable types: 0 continuous, 1532 integer (1532 binary)
Coefficient statistics:
  Matrix range     [0e+00, 0e+00]
  Objective range  [2e+00, 3e+01]
  QObjective range [8e+00, 8e+00]
  Bounds range     [1e+00, 1e+00]
  RHS range        [0e+00, 0e+00]
Found heuristic solution: objective 0.0000000
Found heuristic solution: objective -2600.000000
Found heuristic solution: objective -9112.000000
Found heuristic solution: objective -9186.000000
Presolve time: 0.29s
Presolved: 6829 rows, 8361 columns, 20487 nonzeros
Variable types: 0 continuous, 8361 integer (8361 binary)

Root relaxation: objective -1.278000e+04, 2185 iterations, 0.04 seconds (0.01 work units)

    Nodes    |    Current Node    |     Objective Bounds      |     Work
 Expl Unexpl |  Obj  Depth IntInf | Incumbent    BestBd   Gap | It/Node Time

     0     0 -12780.000    0 1532 -9186.0000 -12780.000  39.1%     -    0s
     0     0 -11852.000    0 1998 -9186.0000 -11852.000  29.0%     -    0s
     0     0 -11801.000    0 2030 -9186.0000 -11801.000  28.5%     -    0s
     0     0 -11797.000    0 2035 -9186.0000 -11797.000  28.4%     -    1s
     0     0 -11539.542    0 2261 -9186.0000 -11539.542  25.6%     -    1s
     0     0 -11539.542    0 2233 -9186.0000 -11539.542  25.6%     -    1s
     0     2 -11539.375    0 2220 -9186.0000 -11539.375  25.6%     -    2s
   188   190 -10757.500   94 2768 -9186.0000 -11525.042  25.5%   111    5s
   606   608 -9552.0000  304 2864 -9186.0000 -11525.042  25.5%  83.7   10s
   810   784 -10303.000  161 2553 -9186.0000 -11104.167  20.9%  72.8   16s
   818   789 -9477.0000  318 3299 -9186.0000 -10764.568  17.2%  72.1   28s
   819   790 -9612.5000  287 3477 -9186.0000 -10726.789  16.8%  72.0   34s
   820   790 -10451.500  138 3504 -9186.0000 -10717.760  16.7%  71.9   36s
   828   796 -10546.572   75 4028 -9186.0000 -10546.572  14.8%  71.2   61s
   829   796 -10282.000  164 4355 -9186.0000 -10520.170  14.5%  71.1   75s
   830   797 -10511.978  105 4445 -9186.0000 -10511.978  14.4%  71.1   80s
   833   799 -9477.0000  318 4580 -9186.0000 -10507.994  14.4%  70.8   85s
   840   804 -9905.0000  225 4906 -9186.0000 -10382.879  13.0%  70.2  119s
   841   804 -9398.6667  336 5206 -9186.0000 -10354.354  12.7%  70.1  135s
   842   805 -10348.279  133 5325 -9186.0000 -10348.279  12.7%  70.0  141s
   843   806 -9874.0000  230 5377 -9186.0000 -10346.442  12.6%  70.0  145s
   847   808 -9460.0000  321 5508 -9186.0000 -10344.717  12.6%  69.6  150s
   852   812 -9394.6667  338 5813 -9186.0000 -10244.151  11.5%  69.2  195s
   853   812 -9199.6667  393 6045 -9186.0000 -10223.508  11.3%  69.1  222s
   854   813 -10186.000  178 6117 -9186.0000 -10219.611  11.3%  69.1  231s
   855   814 -9608.5000  288 6207 -9186.0000 -10218.657  11.2%  69.0  235s
   861   818 -10218.060   38 6335 -9186.0000 -10218.060  11.2%  68.5  241s
   862   818 -9883.0000  228 6557 -9186.0000 -10151.900  10.5%  68.4  290s
   863   819 -9284.6667  368 6742 -9186.0000 -10140.566  10.4%  68.3  312s
   864   820 -10137.560   81 6758 -9186.0000 -10137.560  10.4%  68.3  324s
   865   820 -9950.0000  217 6789 -9186.0000 -10137.025  10.4%  68.2  327s
   866   821 -10136.491   29 6838 -9186.0000 -10136.491  10.3%  68.1  330s
   870   824 -10136.293  109 6890 -9186.0000 -10136.293  10.3%  67.8  335s
   871   824 -10105.999   10 6815 -9186.0000 -10105.999  10.0%  67.7  374s
   872   825 -9586.5000  292 6864 -9186.0000 -10099.762  9.95%  67.6  394s
   873   826 -9363.6667  347 6931 -9186.0000 -10098.438  9.93%  67.6  400s
   875   827 -9669.5000  272 6958 -9186.0000 -10097.949  9.93%  67.4  406s
   880   830 -9632.5000  281 6902 -9186.0000 -10081.997  9.75%  67.0  439s
   881   831 -10078.230  134 6992 -9186.0000 -10078.230  9.71%  66.9  453s
   882   832 -10057.500  199 7013 -9186.0000 -10077.462  9.70%  66.9  459s
   883   832 -10077.150   31 7046 -9186.0000 -10077.150  9.70%  66.8  463s
   885   834 -10077.011   75 7082 -9186.0000 -10077.011  9.70%  66.6  465s
   888   836 -9235.6667  384 6991 -9186.0000 -10063.947  9.56%  66.4  495s
   889   836 -10061.017  184 7023 -9186.0000 -10061.017  9.53%  66.3  510s
   891   838 -9404.3333  334 7076 -9186.0000 -10060.268  9.52%  66.2  515s
   896   841 -9669.5000  272 7040 -9186.0000 -10047.012  9.37%  65.8  545s
   897   842 -10043.500  201 7091 -9186.0000 -10044.271  9.34%  65.7  559s
   898   842 -10043.847  103 7123 -9186.0000 -10043.847  9.34%  65.7  562s
   901   844 -9619.5000  285 7161 -9186.0000 -10043.679  9.34%  65.5  565s
   903   846 -9445.0000  325 7116 -9186.0000 -10031.575  9.21%  65.3  596s
   904   846 -10029.058  156 7188 -9186.0000 -10029.058  9.18%  65.2  608s
   905   847 -9805.0000  248 7207 -9186.0000 -10028.587  9.17%  65.2  612s
   907   848 -10005.500  206 7237 -9186.0000 -10028.427  9.17%  65.0  615s
   910   850 -10016.229  161 7177 -9186.0000 -10016.229  9.04%  64.8  647s
   911   851 -10014.409  132 7207 -9186.0000 -10014.409  9.02%  64.7  657s
   912   852 -10013.988  189 7261 -9186.0000 -10013.988  9.01%  64.7  660s
   917   855 -10006.913  149 7193 -9186.0000 -10006.913  8.94%  64.3  687s
   918   856 -9477.0000  318 7240 -9186.0000 -10004.774  8.91%  64.2  698s
   919   856 -9612.5000  287 7248 -9186.0000 -10004.444  8.91%  64.2  701s
   922   858 -9993.5000  209 7271 -9186.0000 -10004.198  8.91%  64.0  705s
   925   860 -9434.0000  327 7218 -9186.0000 -9998.0587  8.84%  63.8  727s
   926   861 -9996.5890   80 7284 -9186.0000 -9996.5890  8.82%  63.7  736s
   927   862 -9996.2289  161 7310 -9186.0000 -9996.2289  8.82%  63.6  740s
   932   865 -9989.3369   38 7261 -9186.0000 -9989.3369  8.75%  63.3  765s
   933   866 -9477.0000  318 7301 -9186.0000 -9987.8348  8.73%  63.2  774s
   934   866 -9987.4825   16 7314 -9186.0000 -9987.4825  8.73%  63.1  778s
   936   868 -9987.3730   57 7344 -9186.0000 -9987.3730  8.72%  63.0  780s
   940   870 -9905.0000  225 7326 -9186.0000 -9981.1281  8.66%  62.7  802s
   941   871 -9398.6667  336 7361 -9186.0000 -9979.9345  8.64%  62.7  810s
   943   872 -9874.0000  230 7400 -9186.0000 -9979.5340  8.64%  62.5  815s
   946   874 -9423.0000  330 7318 -9186.0000 -9973.7048  8.58%  62.3  840s
   947   875 -9460.0000  321 7355 -9186.0000 -9972.2109  8.56%  62.3  852s
   948   876 -9971.9082  138 7396 -9186.0000 -9971.9082  8.56%  62.2  855s
   953   879 -9199.6667  393 7338 -9186.0000 -9968.0788  8.51%  61.9  876s
   954   880 -9967.0748  178 7404 -9186.0000 -9967.0748  8.50%  61.8  882s
   955   880 -9608.5000  288 7411 -9186.0000 -9966.7033  8.50%  61.8  887s
   957   882 -9381.6667  340 7451 -9186.0000 -9966.5259  8.50%  61.6  890s
   960   884 -9640.5000  279 7388 -9186.0000 -9963.4138  8.46%  61.4  909s
   961   884 -9962.6397   38 7432 -9186.0000 -9962.6397  8.45%  61.4  915s
   964   886 -9962.3932   81 7454 -9186.0000 -9962.3932  8.45%  61.2  920s
   977   896 -9923.0000  222 4144 -9186.0000 -9962.3844  8.45%  1041  945s
   978   897 -9962.3844   18 6443 -9186.0000 -9962.3844  8.45%  1040 1013s
   979   898 -9593.0000  291 7138 -9186.0000 -9962.3844  8.45%  1039 1079s
   980   898 -9632.5000  281 7304 -9186.0000 -9962.3844  8.45%  1038 1112s
   981   899 -9962.3844  134 7329 -9186.0000 -9962.3844  8.45%  1036 1125s
   982   900 -9962.3844  199 7363 -9186.0000 -9962.3844  8.45%  1035 1130s
   984   901 -9741.5000  259 7412 -9186.0000 -9962.3844  8.45%  1033 1135s
   989   904 -9952.2994  184 7425 -9186.0000 -9952.2994  8.34%  1028 1171s
   990   905 -9951.3718   85 7446 -9186.0000 -9951.3718  8.33%  1027 1178s
   991   906 -9404.3333  334 7461 -9186.0000 -9951.1925  8.33%  1026 1181s
   994   908 -9951.1335  191 7474 -9186.0000 -9951.1335  8.33%  1023 1185s
   995   908 -9945.4304  144 7415 -9186.0000 -9945.4304  8.27%  1022 1208s
   996   909 -9669.5000  272 7443 -9186.0000 -9944.1047  8.25%  1021 1218s
   997   910 -9943.8703  201 7458 -9186.0000 -9943.8703  8.25%  1020 1221s
  1001   912 -9619.5000  285 7499 -9186.0000 -9943.7391  8.25%  1016 1225s
  1003   914 -9445.0000  325 7449 -9186.0000 -9938.3897  8.19%  1014 1248s
  1004   914 -9937.4220  156 7477 -9186.0000 -9937.4220  8.18%  1013 1257s
  1005   915 -9805.0000  248 7482 -9186.0000 -9937.1116  8.18%  1012 1260s
  1009   918 -9936.9442  137 7518 -9186.0000 -9936.9442  8.17%  1008 1266s
  1010   918 -9932.4765  161 7488 -9186.0000 -9932.4765  8.13%  1007 1288s
  1011   919 -9931.4824  132 7501 -9186.0000 -9931.4824  8.12%  1006 1297s
  1012   920 -9931.1996  189 7529 -9186.0000 -9931.1996  8.11%  1005 1300s
  1015   922 -9931.1253   61 7547 -9186.0000 -9931.1253  8.11%  1002 1305s
  1016   922 -9230.6667  386 7502 -9186.0000 -9926.8892  8.07%  1001 1326s
  1017   923 -9926.0148  149 7541 -9186.0000 -9926.0148  8.06%  1000 1335s
  1019   924 -9612.5000  287 7563 -9186.0000 -9925.7659  8.05%   998 1340s
  1022   926 -9921.2445  209 7543 -9186.0000 -9921.2445  8.00%   995 1367s
  1023   927 -9814.0000  247 7588 -9186.0000 -9920.3077  7.99%   994 1375s
  1025   928 -9434.0000  327 7604 -9186.0000 -9920.0230  7.99%   992 1381s
  1028   930 -9916.7157   75 7569 -9186.0000 -9916.7157  7.95%   989 1403s
  1029   931 -9916.0160  164 7612 -9186.0000 -9916.0160  7.95%   988 1410s
  1031   932 -9837.0000  239 7635 -9186.0000 -9915.7750  7.94%   986 1415s
  1035   935 -9354.6667  348 7612 -9186.0000 -9912.3429  7.91%   982 1439s
  1036   936 -9911.4015   57 7611 -9186.0000 -9911.4015  7.90%   981 1448s
  1037   936 -9911.2244   64 7635 -9186.0000 -9911.2244  7.89%   981 1451s
  1040   938 -9905.0000  225 7658 -9186.0000 -9911.1826  7.89%   978 1456s
  1041   939 -9398.6667  336 7624 -9186.0000 -9908.4159  7.86%   977 1474s
  1042   940 -9907.8619  133 7649 -9186.0000 -9907.8619  7.86%   976 1481s
  1044   941 -9907.7034  194 7684 -9186.0000 -9907.7034  7.86%   974 1485s
  1048   944 -9905.5842  138 7616 -9186.0000 -9905.5842  7.83%   970 1504s
  1049   944 -9614.5000  286 7659 -9186.0000 -9904.7882  7.82%   969 1513s
  1050   945 -9404.3333  334 7688 -9186.0000 -9904.6674  7.82%   968 1515s
  1053   947 -9199.6667  393 7687 -9186.0000 -9904.5540  7.82%   966 1521s
  1054   948 -9901.9923  178 7664 -9186.0000 -9901.9923  7.79%   965 1538s
  1055   948 -9608.5000  288 7667 -9186.0000 -9901.4617  7.79%   964 1545s
  1058   950 -9901.2821   29 7700 -9186.0000 -9901.2821  7.79%   961 1550s
  1060   952 -9640.5000  279 7666 -9186.0000 -9898.8938  7.76%   959 1569s
  1061   952 -9898.2986   38 7708 -9186.0000 -9898.2986  7.75%   958 1576s
  1063   954 -9284.6667  368 7707 -9186.0000 -9898.1625  7.75%   957 1580s
  1066   956 -9896.4017   29 7682 -9186.0000 -9896.4017  7.73%   954 1598s
  1067   956 -9895.8300  156 7715 -9186.0000 -9895.8300  7.73%   953 1607s
  1068   957 -9895.7108   94 7724 -9186.0000 -9895.7108  7.73%   952 1610s
  1072   960 -9586.5000  292 7684 -9186.0000 -9893.8615  7.71%   949 1630s
  1073   960 -9363.6667  347 7695 -9186.0000 -9893.4895  7.70%   948 1636s
  1076   962 -9354.6667  348 7727 -9186.0000 -9893.3996  7.70%   945 1640s
  1077   963 -9892.4348  222 7722 -9186.0000 -9892.4348  7.69%   944 1651s
  1078   964 -9892.2185   18 7743 -9186.0000 -9892.2185  7.69%   943 1655s
  1082   966 -9892.0968  199 7773 -9186.0000 -9892.0968  7.69%   940 1661s
  1083   967 -9890.4383   31 7736 -9186.0000 -9890.4383  7.67%   939 1676s
  1084   968 -9741.5000  259 7744 -9186.0000 -9890.0854  7.66%   938 1682s
  1086   969 -9889.9968  192 7761 -9186.0000 -9889.9968  7.66%   936 1685s
  1089   971 -9888.4628  184 7708 -9186.0000 -9888.4628  7.65%   934 1700s
  1090   972 -9888.0303   85 7740 -9186.0000 -9888.0303  7.64%   933 1706s
  1091   972 -9404.3333  334 7741 -9186.0000 -9887.8808  7.64%   932 1710s
  1097   976 -9886.9595  201 7728 -9186.0000 -9886.9595  7.63%   927 1724s
  1098   977 -9886.7437  103 7760 -9186.0000 -9886.7437  7.63%   926 1728s
  1099   978 -9239.6667  382 7766 -9186.0000 -9886.7043  7.63%   925 1730s
  1102   980 -9886.0634   99 7749 -9186.0000 -9886.0634  7.62%   923 1740s
  1104   981 -9885.8422  156 7771 -9186.0000 -9885.8422  7.62%   921 1745s
  1107   983 -9885.4998  206 7758 -9186.0000 -9885.4998  7.61%   919 1753s
  1108   984 -9885.4052   88 7778 -9186.0000 -9885.4052  7.61%   918 1755s
  1112   986 -9884.7410  189 7765 -9186.0000 -9884.7410  7.61%   914 1765s
  1114   988 -9423.0000  330 7788 -9186.0000 -9884.5332  7.60%   913 1771s
  1117   990 -9883.7963  149 7762 -9186.0000 -9883.7963  7.60%   910 1781s
  1118   990 -9477.0000  318 7774 -9186.0000 -9883.6161  7.59%   909 1785s
  1123   994 -9814.0000  247 7749 -9186.0000 -9882.8533  7.59%   905 1798s
  1124   994 -9882.6012  108 7785 -9186.0000 -9882.6012  7.58%   905 1803s
  1125   995 -9434.0000  327 7788 -9186.0000 -9882.5515  7.58%   904 1805s
  1129   998 -9882.0301  164 7765 -9186.0000 -9882.0301  7.58%   901 1815s
  1133  1000 -9477.0000  318 7798 -9186.0000 -9881.8946  7.58%   897 1820s
  1134  1001 -9881.3937   16 7763 -9186.0000 -9881.3937  7.57%   897 1827s
  1135  1002 -9354.6667  348 7788 -9186.0000 -9881.3038  7.57%   896 1830s
  1139  1004 -9551.0000  305 7740 -9186.0000 -9880.2782  7.56%   893 1843s
  1140  1005 -9880.0312  225 7782 -9186.0000 -9880.0312  7.56%   892 1848s
  1142  1006 -9879.9701  133 7793 -9186.0000 -9879.9701  7.55%   890 1850s
  1144  1008 -9878.9408  194 7766 -9186.0000 -9878.9408  7.54%   889 1861s
  1145  1008 -9878.7372   53 7779 -9186.0000 -9878.7372  7.54%   888 1866s
  1149  1011 -9614.5000  286 7802 -9186.0000 -9878.6389  7.54%   885 1871s
  1150  1012 -9404.3333  334 7742 -9186.0000 -9877.7513  7.53%   884 1881s
  1152  1013 -9394.6667  338 7793 -9186.0000 -9877.5658  7.53%   883 1886s
  1156  1016 -9877.0495  222 7786 -9186.0000 -9877.0495  7.52%   880 1895s
  1157  1016 -9381.6667  340 7789 -9186.0000 -9876.7935  7.52%   879 1900s
  1161  1019 -9876.7167   38 7811 -9186.0000 -9876.7167  7.52%   876 1905s
  1163  1020 -9284.6667  368 7803 -9186.0000 -9876.3845  7.52%   874 1911s
  1166  1022 -9876.3336   29 7832 -9186.0000 -9876.3336  7.52%   872 1915s
  1167  1023 -9875.9956  156 7793 -9186.0000 -9875.9956  7.51%   871 1920s
  1171  1026 -9875.8526   10 7822 -9186.0000 -9875.8526  7.51%   868 1926s
  1172  1026 -9586.5000  292 7804 -9186.0000 -9875.6531  7.51%   868 1930s
  1175  1028 -9669.5000  272 7829 -9186.0000 -9875.5413  7.51%   865 1935s
  1176  1029 -9354.6667  348 7793 -9186.0000 -9875.1804  7.50%   865 1940s
  1178  1030 -9875.0215   18 7816 -9186.0000 -9875.0215  7.50%   863 1945s
  1181  1032 -9874.6876  134 7826 -9186.0000 -9874.6876  7.50%   861 1952s
  1182  1033 -9874.5876  199 7824 -9186.0000 -9874.5876  7.50%   860 1955s
  1186  1036 -9874.1487  192 7818 -9186.0000 -9874.1487  7.49%   857 1964s
  1187  1036 -9873.9743    3 7825 -9186.0000 -9873.9743  7.49%   857 1967s
  1190  1038 -9873.9240   85 7840 -9186.0000 -9873.9240  7.49%   854 1971s
  1191  1039 -9404.3333  334 7810 -9186.0000 -9873.6444  7.49%   854 1976s
  1195  1042 -9873.5405  144 7835 -9186.0000 -9873.5405  7.48%   851 1981s
  1196  1042 -9669.5000  272 7806 -9186.0000 -9873.0253  7.48%   850 1987s
  1197  1043 -9872.7876  201 7825 -9186.0000 -9872.7876  7.48%   849 1992s
  1200  1045 -9835.0000  240 7846 -9186.0000 -9872.7104  7.48%   847 1995s
  1202  1046 -9872.0531   99 7810 -9186.0000 -9872.0531  7.47%   846 2005s
  1205  1048 -9805.0000  248 7845 -9186.0000 -9871.8630  7.47%   844 2010s
  1207  1050 -9871.6459  206 7822 -9186.0000 -9871.6459  7.46%   842 2016s
  1211  1052 -9871.5618  132 7859 -9186.0000 -9871.5618  7.46%   840 2021s
  1212  1053 -9870.9625  189 7805 -9186.0000 -9870.9625  7.46%   839 2028s
  1213  1054 -9602.5000  289 7838 -9186.0000 -9870.8283  7.46%   838 2032s
  1215  1055 -9870.7602   61 7840 -9186.0000 -9870.7602  7.45%   837 2035s
  1218  1057 -9477.0000  318 7806 -9186.0000 -9870.1201  7.45%   835 2045s

Cutting planes:
  Gomory: 43
  MIR: 263
  Flow cover: 3185
  Zero half: 995
  Mod-K: 24
  RLT: 275
  BQP: 445

Explored 1218 nodes (2143658 simplex iterations) in 2048.00 seconds (2892.61 work units)
Thread count was 1 (of 72 available processors)

Solution count 4: -9186 -9112 -2600 0 

Time limit reached
Best objective -9.186000000000e+03, best bound -9.870000000000e+03, gap 7.4461%

User-callback calls 25929, time in user-callback 0.11 sec

BQP_SOLUTION, 1532, 6829, -3235.000000, 2048.000756, -1, 1, 1, 1, -1, -1, 1, -1, 1, 1, -1, 1, 1, -1, -1, -1, 1, 1, -1, 1, 1, -1, -1, 1, 1, 1, -1, 1, -1, 1, -1, 1, 1, 1, -1, 1, 1, -1, -1, -1, -1, 1, 1, -1, -1, -1, 1, -1, 1, 1, -1, -1, -1, -1, -1, 1, -1, 1, -1, 1, 1, 1, -1, -1, 1, 1, 1, -1, 1, 1, -1, -1, 1, 1, -1, -1, 1, 1, -1, -1, 1, 1, 1, -1, -1, 1, -1, -1, -1, 1, 1, -1, -1, -1, 1, 1, 1, -1, 1, -1, 1, -1, -1, 1, -1, 1, -1, -1, -1, -1, -1, 1, 1, 1, 1, -1, -1, -1, -1, -1, -1, 1, -1, 1, 1, -1, -1, -1, -1, 1, -1, -1, -1, 1, -1, -1, -1, -1, -1, -1, 1, 1, -1, -1, 1, 1, -1, -1, 1, -1, -1, -1, -1, 1, -1, -1, 1, 1, 1, -1, -1, 1, 1, -1, -1, -1, 1, -1, 1, -1, 1, -1, 1, 1, -1, 1, 1, 1, -1, 1, 1, -1, 1, -1, -1, 1, -1, -1, -1, -1, 1, -1, 1, -1, 1, -1, -1, 1, -1, -1, -1, 1, 1, -1, 1, 1, -1, -1, -1, -1, 1, -1, -1, 1, 1, -1, -1, 1, -1, -1, -1, 1, 1, 1, 1, 1, -1, -1, -1, 1, 1, 1, -1, 1, -1, -1, -1, 1, 1, 1, -1, 1, -1, -1, -1, 1, -1, 1, -1, 1, -1, -1, -1, 1, 1, -1, -1, 1, -1, -1, -1, 1, 1, -1, 1, 1, -1, -1, -1, 1, -1, -1, 1, 1, -1, -1, 1, 1, 1, 1, -1, 1, -1, -1, 1, 1, -1, -1, 1, 1, -1, 1, 1, 1, -1, -1, 1, -1, -1, 1, 1, -1, 1, -1, 1, -1, -1, 1, 1, -1, 1, 1, 1, -1, -1, 1, -1, 1, -1, -1, 1, -1, -1, -1, 1, -1, 1, 1, 1, -1, -1, 1, 1, -1, 1, 1, 1, -1, -1, -1, 1, -1, -1, 1, 1, -1, -1, -1, 1, -1, 1, 1, 1, -1, 1, -1, 1, -1, 1, -1, 1, 1, -1, -1, -1, -1, 1, 1, 1, 1, 1, -1, 1, -1, -1, 1, 1, 1, -1, -1, 1, -1, 1, 1, 1, -1, -1, -1, 1, -1, -1, 1, 1, -1, 1, -1, -1, -1, 1, 1, 1, 1, -1, -1, 1, -1, 1, 1, 1, -1, 1, 1, -1, -1, -1, 1, 1, 1, -1, -1, -1, -1, 1, 1, 1, 1, 1, 1, -1, 1, -1, 1, 1, -1, -1, 1, -1, -1, -1, 1, 1, 1, -1, 1, -1, -1, -1, -1, 1, 1, -1, 1, -1, 1, -1, -1, 1, 1, -1, 1, 1, -1, -1, -1, 1, 1, 1, -1, 1, -1, 1, 1, -1, 1, 1, 1, -1, 1, -1, 1, 1, -1, -1, 1, 1, -1, -1, 1, 1, 1, -1, 1, -1, 1, -1, 1, 1, 1, -1, 1, 1, 1, -1, -1, 1, 1, -1, 1, 1, -1, -1, -1, -1, 1, -1, 1, 1, 1, -1, 1, 1, 1, -1, 1, 1, 1, 1, -1, 1, -1, -1, 1, 1, 1, 1, -1, 1, -1, -1, 1, 1, 1, -1, -1, -1, 1, -1, -1, 1, 1, 1, -1, 1, 1, -1, -1, 1, 1, 1, 1, -1, 1, -1, -1, -1, 1, 1, -1, -1, -1, -1, 1, 1, 1, 1, -1, -1, -1, -1, -1, 1, 1, 1, -1, 1, -1, -1, -1, -1, 1, -1, -1, -1, -1, -1, 1, -1, 1, 1, 1, -1, -1, -1, 1, -1, 1, 1, -1, -1, -1, -1, 1, -1, 1, 1, 1, -1, -1, 1, -1, -1, 1, 1, 1, 1, -1, -1, 1, -1, 1, 1, 1, -1, -1, 1, 1, -1, 1, 1, 1, 1, -1, -1, 1, -1, -1, 1, 1, 1, 1, 1, 1, -1, -1, 1, 1, -1, 1, 1, 1, 1, -1, 1, -1, 1, 1, 1, -1, 1, -1, 1, 1, 1, -1, 1, 1, -1, 1, 1, 1, 1, 1, 1, -1, -1, 1, 1, 1, -1, 1, 1, -1, -1, 1, -1, 1, 1, -1, 1, -1, -1, 1, -1, 1, 1, 1, 1, -1, -1, 1, 1, 1, 1, 1, 1, 1, -1, 1, -1, -1, -1, -1, 1, 1, -1, 1, -1, 1, 1, -1, -1, 1, -1, 1, 1, -1, 1, -1, -1, 1, -1, 1, -1, -1, 1, -1, 1, 1, -1, 1, 1, -1, 1, -1, 1, 1, -1, 1, -1, 1, -1, -1, 1, 1, -1, 1, 1, 1, 1, -1, 1, 1, -1, 1, -1, 1, -1, 1, -1, 1, 1, -1, 1, 1, 1, -1, 1, 1, -1, 1, 1, 1, 1, -1, -1, 1, -1, 1, 1, 1, 1, -1, 1, -1, 1, 1, 1, 1, -1, -1, 1, -1, 1, 1, -1, 1, -1, -1, -1, -1, 1, -1, -1, 1, 1, -1, 1, -1, -1, -1, 1, -1, 1, -1, 1, 1, 1, 1, -1, 1, 1, -1, 1, -1, 1, -1, -1, 1, -1, -1, -1, 1, -1, -1, -1, -1, 1, -1, 1, 1, 1, -1, -1, -1, -1, -1, 1, -1, 1, 1, -1, -1, -1, 1, -1, -1, 1, -1, -1, -1, -1, -1, 1, -1, 1, -1, 1, -1, -1, 1, 1, -1, 1, -1, -1, 1, -1, 1, 1, -1, -1, -1, -1, -1, -1, -1, -1, 1, 1, -1, -1, -1, -1, 1, -1, 1, -1, -1, -1, -1, -1, -1, -1, 1, 1, -1, 1, 1, -1, -1, -1, 1, 1, -1, -1, -1, -1, 1, -1, 1, -1, 1, -1, 1, 1, -1, -1, 1, -1, 1, -1, 1, 1, -1, -1, 1, -1, 1, -1, 1, -1, -1, 1, -1, 1, -1, 1, 1, -1, -1, 1, -1, -1, -1, 1, -1, 1, 1, 1, 1, -1, 1, 1, 1, 1, -1, 1, 1, 1, 1, -1, 1, -1, -1, 1, 1, -1, -1, -1, 1, -1, 1, 1, -1, 1, 1, 1, 1, 1, -1, 1, 1, 1, 1, 1, 1, -1, 1, -1, 1, 1, 1, 1, 1, -1, -1, 1, -1, 1, 1, -1, 1, 1, 1, 1, 1, -1, 1, 1, 1, 1, 1, 1, -1, 1, 1, 1, 1, 1, 1, 1, -1, 1, 1, 1, -1, 1, 1, -1, 1, 1, -1, 1, 1, -1, 1, -1, 1, 1, 1, 1, 1, 1, 1, 1, 1, 1, 1, 1, -1, 1, 1, -1, 1, -1, 1, 1, 1, 1, 1, 1, 1, 1, -1, 1, 1, -1, 1, -1, 1, -1, 1, 1, 1, -1, 1, -1, 1, -1, 1, 1, 1, 1, 1, 1, -1, 1, 1, 1, 1, -1, 1, 1, -1, -1, 1, 1, 1, 1, 1, -1, 1, -1, 1, 1, 1, -1, 1, -1, 1, 1, -1, 1, 1, -1, 1, -1, -1, -1, 1, 1, 1, -1, 1, -1, -1, 1, -1, 1, 1, 1, -1, 1, 1, 1, 1, 1, 1, -1, -1, 1, -1, 1, -1, 1, 1, -1, 1, -1, 1, 1, -1, 1, 1, -1, -1, -1, -1, 1, 1, 1, -1, 1, -1, -1, -1, 1, -1, 1, -1, 1, -1, 1, -1, -1, 1, 1, 1, 1, -1, -1, -1, 1, 1, 1, -1, -1, -1, 1, -1, -1, -1, 1, -1, 1, -1, 1, -1, 1, 1, -1, -1, 1, -1, 1, -1, 1, -1, 1, -1, 1, -1, 1, -1, -1, 1, -1, 1, -1, 1, -1, -1, -1, 1, -1, -1, -1, 1, 1, -1, -1, 1, -1, -1, 1, -1, 1, -1, 1, -1, 1, 1, -1, -1, 1, 1, -1, -1, -1, -1, 1, 1, 1, -1, 1, 1, -1, 1, -1, -1, 1, -1, 1, 1, -1, -1, 1, -1, 1, 1, 1, -1, -1, -1, 1, -1, 1, 1, 1, 1, -1, 1, 1, -1, 1, 1, 1, 1, -1, -1, 1, -1, 1, 1, 1, 1, -1, 1, 1, -1, 1, 1, 1, 1, -1, 1, 1, -1, -1, 1, 1, -1, 1, 1, -1, -1, -1, 1, 1, -1, 1, 1, -1, -1, 1, 1, 1, -1, -1, 1, 1, -1, 1, 1, 1, -1, 1, 1, -1, -1, 1, 1, 1, -1, -1, 1, 1, 1, -1, 1, 1, 1, -1, 1, -1, -1, 1, 1, 1, 1, 1, 1, 1, -1, -1, 1, 1, 1, -1, 1, 1, -1, -1, 1, 1, 1, -1, 1, 1, -1, -1, 1, 1, -1, 1, 1, 1, -1, -1, 1, 1, 1, 1, -1, 1, -1, -1, -1, 1, 1, 1, -1, 1, -1, -1, -1, 1, -1, -1, 1, 1, -1, 1, -1, 1, 1, 1, 1, 1, -1, -1, -1, 1, -1, 1, -1, 1, -1, -1, -1, 1, 1, 1, -1, 1, -1, -1, -1, -1, -1, 1, -1, 1, 1, -1, -1, 1, 1, 1, -1, 1, -1, -1, -1, -1, 1, 1, -1, 1, 1, -1, 1, -1, 1, 1, -1, 1, -1, 1, -1, -1, 1, -1, 1, 1, 1, -1, -1, 1, 1, -1, 1, 1, 1, -1, -1, 1, -1, -1, 1, -1, 1, 1, -1, 1, 1, 1, -1, 1, 1, -1, 1
BQP_DATA, 1532, 6829, -3235.000000, -3919.000000, -9186.000000, -9870.000000, 2048.000756, 4510, 1218
